solution status: optimal solution found
objective value:                                    0
bank.thing.devices[0].thingy.vlysis_in_y                  -25 	(obj:0)
bank.thing.devices[0].thingy.vlysis_in_z                  -25 	(obj:0)
bank.thing.devices[0].thingy.vpush_y                  -25 	(obj:0)
bank.thing.devices[0].thingy.vpush_z                  -24 	(obj:0)
bank.thing.devices[0].thingy.vbead_in_y                  -25 	(obj:0)
bank.thing.devices[0].thingy.vbead_in_z                  -23 	(obj:0)
bank.thing.devices[0].thingy.vcell_in_y                  -25 	(obj:0)
bank.thing.devices[0].thingy.vcell_in_z                  -22 	(obj:0)
